<number of tasks>
250

<cycle time>
1000

<order strength>
0.6


<task times>
1 168
2 246
3 37
4 247
5 238
6 516
7 182
8 276
9 340
10 160
11 419
12 438
13 60
14 97
15 217
16 261
17 359
18 101
19 221
20 125
21 173
22 57
23 495
24 136
25 295
26 70
27 157
28 302
29 58
30 299
31 118
32 38
33 133
34 171
35 50
36 164
37 61
38 252
39 107
40 78
41 186
42 375
43 69
44 239
45 74
46 254
47 151
48 491
49 143
50 305
51 139
52 461
53 30
54 211
55 304
56 188
57 64
58 299
59 97
60 328
61 333
62 108
63 301
64 161
65 396
66 452
67 222
68 82
69 62
70 61
71 93
72 245
73 528
74 275
75 198
76 475
77 285
78 183
79 548
80 111
81 307
82 80
83 109
84 115
85 230
86 269
87 58
88 558
89 456
90 44
91 38
92 170
93 494
94 261
95 132
96 335
97 308
98 107
99 230
100 82
101 33
102 211
103 210
104 262
105 169
106 253
107 90
108 81
109 88
110 142
111 113
112 280
113 38
114 298
115 585
116 359
117 137
118 440
119 183
120 263
121 297
122 268
123 241
124 581
125 505
126 40
127 172
128 172
129 118
130 121
131 40
132 500
133 262
134 123
135 378
136 119
137 412
138 30
139 45
140 192
141 112
142 281
143 126
144 194
145 169
146 366
147 25
148 604
149 24
150 365
151 40
152 185
153 33
154 49
155 389
156 39
157 39
158 117
159 72
160 115
161 79
162 165
163 127
164 178
165 202
166 78
167 207
168 417
169 505
170 266
171 49
172 327
173 381
174 198
175 69
176 416
177 549
178 478
179 332
180 169
181 35
182 454
183 511
184 552
185 320
186 183
187 426
188 90
189 92
190 144
191 155
192 32
193 527
194 249
195 53
196 114
197 117
198 180
199 85
200 67
201 242
202 272
203 135
204 139
205 207
206 132
207 68
208 124
209 38
210 506
211 165
212 105
213 454
214 162
215 206
216 543
217 36
218 37
219 131
220 126
221 178
222 246
223 128
224 281
225 544
226 255
227 213
228 242
229 77
230 157
231 257
232 24
233 299
234 250
235 161
236 145
237 186
238 297
239 45
240 445
241 90
242 509
243 399
244 331
245 330
246 160
247 500
248 501
249 20
250 183

<precedence relations>
1,5
1,7
2,8
3,6
3,10
3,15
4,6
4,9
5,14
6,11
6,13
6,45
7,12
7,22
8,15
8,16
9,15
9,16
10,25
11,17
12,18
13,19
14,20
15,21
15,30
16,20
16,22
17,23
18,25
19,24
20,24
21,41
22,26
23,28
24,27
24,46
24,76
25,30
25,43
26,29
26,115
26,150
27,31
28,32
29,33
30,34
30,35
30,36
30,37
30,38
31,42
32,43
33,39
34,40
34,41
34,45
35,73
35,98
35,104
36,41
36,44
37,41
37,42
37,46
37,64
37,76
38,98
39,51
40,52
41,47
41,48
41,49
41,54
42,53
42,54
42,57
43,53
43,54
43,55
44,50
44,57
44,105
44,106
45,249
46,56
46,85
47,58
48,59
49,60
50,62
51,61
52,63
53,65
54,63
54,79
55,64
55,92
55,112
56,63
57,82
57,96
57,156
58,69
59,70
60,66
61,67
62,68
63,72
63,73
64,93
64,94
64,142
65,69
65,70
65,71
65,72
66,74
67,75
68,76
69,103
69,141
70,77
70,79
71,143
71,158
72,118
72,124
73,78
73,94
73,106
74,80
75,81
76,143
76,247
77,84
77,87
78,82
78,83
78,105
79,85
79,86
80,88
81,92
82,89
82,90
82,91
82,92
82,93
83,96
83,149
83,169
84,95
85,97
86,92
86,95
87,94
87,96
87,98
87,112
88,103
89,99
90,101
91,102
92,100
92,157
92,169
93,103
94,141
94,149
95,105
95,150
96,141
97,104
97,141
97,169
98,103
98,106
99,107
100,108
101,109
102,110
103,113
103,114
103,115
103,116
103,117
103,118
103,152
103,162
104,116
105,111
105,112
105,113
105,117
106,111
106,114
106,132
106,134
107,120
108,123
109,121
110,122
111,119
111,191
112,156
112,191
113,124
113,167
114,150
114,151
116,125
117,123
117,124
117,125
118,151
119,127
120,128
121,130
122,131
123,126
123,135
123,151
124,129
124,132
124,133
124,134
124,136
124,191
125,133
125,134
125,167
126,138
127,137
128,141
129,139
130,140
131,142
132,143
134,151
134,175
135,205
136,170
136,175
137,144
138,145
139,147
140,146
141,150
141,151
141,152
141,159
142,149
143,148
143,149
143,169
143,185
144,156
145,153
146,154
147,155
148,165
148,178
148,205
148,220
149,163
149,177
149,192
150,157
150,158
151,158
152,211
152,222
152,247
153,159
154,159
155,161
156,162
157,163
157,164
157,239
158,160
158,165
159,167
160,166
160,168
160,170
161,170
162,169
162,175
162,247
164,191
164,232
165,232
166,173
167,171
167,172
167,174
167,175
168,177
168,178
170,176
171,179
172,180
173,182
174,181
175,183
175,192
175,194
176,184
176,185
176,247
178,186
179,187
180,191
181,188
182,189
183,190
184,192
184,195
185,193
185,240
186,194
187,196
188,198
189,200
190,199
191,203
192,197
192,202
193,201
195,203
195,204
195,205
195,242
196,206
197,208
198,207
199,212
201,209
202,210
202,212
204,211
205,212
205,248
206,218
207,215
208,216
209,217
210,213
210,220
210,222
211,214
211,221
212,219
213,224
214,225
215,223
216,226
217,227
218,228
218,229
221,232
222,230
222,231
222,232
223,233
224,234
225,239
226,235
227,236
228,237
229,238
230,241
230,242
231,240
232,248
232,249
233,247
234,243
235,244
236,245
237,248
238,246
240,249
241,250

<end>
